
Gurobi 7.5.2 (linux64) logging started Sat Jul  7 16:42:29 2018

Changed value of parameter LogFile to result/ilp/simNo_8-n_100-m_40-s_4-minVAF_0.05-cov_10000-k_1-fn_0.15-fp_0.0001-na_0.15.ILP.gurobiSolverLog
   Prev: gurobi.log  Default: 
Changed value of parameter TimeLimit to 86400.0
   Prev: 1e+100  Min: 0.0  Max: 1e+100  Default: 1e+100
Optimize a model with 639293 rows, 10765 columns and 1940420 nonzeros
Variable types: 0 continuous, 10765 integer (10765 binary)
Coefficient statistics:
  Matrix range     [1e-04, 4e+00]
  Objective range  [1e+00, 1e+01]
  Bounds range     [1e+00, 1e+00]
  RHS range        [2e-01, 2e+00]
Found heuristic solution: objective -13997.03363
Presolve removed 133305 rows and 1037 columns (presolve time = 5s) ...
Presolve removed 134809 rows and 1037 columns (presolve time = 15s) ...
Presolve removed 194009 rows and 1629 columns (presolve time = 20s) ...
Presolve removed 194009 rows and 1629 columns
Presolve time: 23.44s
Presolved: 445284 rows, 9136 columns, 1339662 nonzeros
Variable types: 0 continuous, 9136 integer (9136 binary)
Presolved: 9136 rows, 454420 columns, 1348798 nonzeros

Presolve removed 9136 rows and 454420 columns

Root simplex log...

Iteration    Objective       Primal Inf.    Dual Inf.      Time
       0    1.2377090e+01   0.000000e+00   6.904100e+04     29s
    8423   -1.4299680e+02   0.000000e+00   3.472587e+05     30s
   26819   -2.9030267e+02   0.000000e+00   5.221060e+05     35s
   33925   -3.0337154e+02   0.000000e+00   0.000000e+00     39s
   33925   -3.0337154e+02   0.000000e+00   0.000000e+00     40s

Root relaxation: objective -3.033715e+02, 33925 iterations, 13.99 seconds
Total elapsed time = 94.60s
Total elapsed time = 171.87s
Total elapsed time = 203.45s

    Nodes    |    Current Node    |     Objective Bounds      |     Work
 Expl Unexpl |  Obj  Depth IntInf | Incumbent    BestBd   Gap | It/Node Time

     0     0 -303.37154    0 1047 -13997.034 -303.37154  97.8%     -  221s
H    0     0                    -422.4845558 -303.37154  28.2%     -  227s
H    0     0                    -372.1342031 -303.37154  18.5%     -  230s
     0     0 -306.75214    0 1164 -372.13420 -306.75214  17.6%     -  299s
H    0     0                    -370.4306364 -306.75214  17.2%     -  322s
     0     0 -309.81572    0 1158 -370.43064 -309.81572  16.4%     -  517s
H    0     0                    -356.4351989 -309.81572  13.1%     -  527s
     0     0 -309.81572    0 1163 -356.43520 -309.81572  13.1%     -  530s
     0     0 -312.63455    0 1199 -356.43520 -312.63455  12.3%     -  778s
     0     0 -313.06601    0 1284 -356.43520 -313.06601  12.2%     -  812s
     0     0 -313.06601    0 1284 -356.43520 -313.06601  12.2%     -  816s
     0     0 -313.94350    0 1174 -356.43520 -313.94350  11.9%     -  971s
     0     0 -314.10762    0 1192 -356.43520 -314.10762  11.9%     - 1044s
     0     0 -314.32513    0 1300 -356.43520 -314.32513  11.8%     - 1143s
     0     0 -314.33841    0 1298 -356.43520 -314.33841  11.8%     - 1158s
     0     0 -314.33841    0 1301 -356.43520 -314.33841  11.8%     - 1164s
     0     0 -315.30716    0  918 -356.43520 -315.30716  11.5%     - 1299s
     0     0 -315.32456    0  919 -356.43520 -315.32456  11.5%     - 1388s
     0     0 -315.32456    0  929 -356.43520 -315.32456  11.5%     - 1392s
     0     0 -317.14783    0 1263 -356.43520 -317.14783  11.0%     - 1933s
     0     0 -317.64838    0 1169 -356.43520 -317.64838  10.9%     - 2431s
     0     0 -317.88307    0 1172 -356.43520 -317.88307  10.8%     - 2501s
     0     0 -317.90948    0 1240 -356.43520 -317.90948  10.8%     - 2513s
     0     0 -317.92955    0 1239 -356.43520 -317.92955  10.8%     - 2526s
     0     0 -319.26271    0 1164 -356.43520 -319.26271  10.4%     - 3184s
     0     0 -319.26271    0 1164 -356.43520 -319.26271  10.4%     - 3206s
     0     0 -319.35027    0 1177 -356.43520 -319.35027  10.4%     - 3350s
     0     0 -319.41291    0 1285 -356.43520 -319.41291  10.4%     - 3426s
     0     0 -319.41886    0 1301 -356.43520 -319.41886  10.4%     - 3442s
     0     0 -319.41967    0 1298 -356.43520 -319.41967  10.4%     - 3454s
     0     0 -320.26618    0 1260 -356.43520 -320.26618  10.1%     - 3983s
     0     0 -320.47912    0 1244 -356.43520 -320.47912  10.1%     - 4010s
     0     0 -320.54039    0 1134 -356.43520 -320.54039  10.1%     - 4032s
     0     0 -320.55600    0 1232 -356.43520 -320.55600  10.1%     - 4134s
     0     0 -320.64910    0 1266 -356.43520 -320.64910  10.0%     - 4288s
     0     0 -320.64964    0 1267 -356.43520 -320.64964  10.0%     - 4294s
     0     0 -321.96974    0 1242 -356.43520 -321.96974  9.67%     - 5144s
     0     0 -321.96974    0 1250 -356.43520 -321.96974  9.67%     - 5162s
     0     0 -322.24395    0 1149 -356.43520 -322.24395  9.59%     - 5384s
     0     0 -323.07694    0 1289 -356.43520 -323.07694  9.36%     - 6530s
     0     0 -323.09046    0 1296 -356.43520 -323.09046  9.36%     - 6538s
     0     0 -323.09046    0 1296 -356.43520 -323.09046  9.36%     - 6542s
     0     0 -324.16976    0  910 -356.43520 -324.16976  9.05%     - 6751s
     0     0 -324.40480    0 1267 -356.43520 -324.40480  8.99%     - 7031s
     0     0 -324.44397    0 1293 -356.43520 -324.44397  8.98%     - 7043s
     0     0 -324.49881    0 1251 -356.43520 -324.49881  8.96%     - 7103s
     0     0 -324.51981    0 1263 -356.43520 -324.51981  8.95%     - 7115s
     0     0 -324.51981    0 1263 -356.43520 -324.51981  8.95%     - 7117s
     0     0 -325.73564    0 1290 -356.43520 -325.73564  8.61%     - 7991s
     0     0 -325.85389    0 1188 -356.43520 -325.85389  8.58%     - 8113s
     0     0 -325.97511    0 1291 -356.43520 -325.97511  8.55%     - 8226s
     0     0 -326.01242    0 1299 -356.43520 -326.01242  8.54%     - 8263s
     0     0 -326.01458    0 1303 -356.43520 -326.01458  8.53%     - 8286s
     0     0 -327.47775    0 1339 -356.43520 -327.47775  8.12%     - 10665s
     0     0 -327.57246    0 1345 -356.43520 -327.57246  8.10%     - 10749s
     0     0 -327.61302    0 1345 -356.43520 -327.61302  8.09%     - 10768s
     0     0 -327.61302    0 1349 -356.43520 -327.61302  8.09%     - 10772s
     0     0 -329.37229    0 1304 -356.43520 -329.37229  7.59%     - 12621s
     0     0 -329.63579    0 1271 -356.43520 -329.63579  7.52%     - 13097s
     0     0 -329.83753    0 1341 -356.43520 -329.83753  7.46%     - 13244s
     0     0 -330.16451    0 1331 -356.43520 -330.16451  7.37%     - 14107s
     0     0 -330.19879    0 1333 -356.43520 -330.19879  7.36%     - 14116s
     0     0 -330.19879    0 1334 -356.43520 -330.19879  7.36%     - 14119s
     0     0 -330.29343    0 1338 -356.43520 -330.29343  7.33%     - 14196s
     0     0 -330.57898    0 1344 -356.43520 -330.57898  7.25%     - 14342s
     0     0 -330.67362    0 1342 -356.43520 -330.67362  7.23%     - 14350s
     0     0 -330.86615    0 1340 -356.43520 -330.86615  7.17%     - 14446s
     0     0 -330.86615    0 1334 -356.43520 -330.86615  7.17%     - 14451s
     0     0 -331.15267    0 1313 -356.43520 -331.15267  7.09%     - 14625s
     0     0 -331.18543    0 1325 -356.43520 -331.18543  7.08%     - 14673s
     0     0 -331.19139    0 1352 -356.43520 -331.19139  7.08%     - 14683s
     0     0 -331.25127    0 1356 -356.43520 -331.25127  7.07%     - 14714s
     0     0 -331.26191    0 1355 -356.43520 -331.26191  7.06%     - 14719s
     0     0 -331.27105    0 1357 -356.43520 -331.27105  7.06%     - 14726s
     0     0 -331.27337    0 1355 -356.43520 -331.27337  7.06%     - 14731s
     0     0 -332.97643    0 1248 -356.43520 -332.97643  6.58%     - 19170s
     0     0 -333.41826    0 1309 -356.43520 -333.41826  6.46%     - 20753s
     0     0 -333.41826    0 1396 -356.43520 -333.41826  6.46%     - 20779s
     0     0 -334.38449    0 1381 -356.43520 -334.38449  6.19%     - 25673s
     0     0 -334.49690    0 1383 -356.43520 -334.49690  6.15%     - 25709s
     0     0 -334.56941    0 1421 -356.43520 -334.56941  6.13%     - 25732s
     0     0 -334.57523    0 1419 -356.43520 -334.57523  6.13%     - 25742s
     0     0 -334.57523    0 1420 -356.43520 -334.57523  6.13%     - 25746s
     0     0 -335.59256    0 1362 -356.43520 -335.59256  5.85%     - 26829s
     0     0 -335.87573    0 1242 -356.43520 -335.87573  5.77%     - 27048s
     0     0 -335.89647    0 1232 -356.43520 -335.89647  5.76%     - 27063s
     0     0 -335.89647    0 1239 -356.43520 -335.89647  5.76%     - 27068s
     0     0 -336.41089    0 1242 -356.43520 -336.41089  5.62%     - 29422s
     0     0 -336.74973    0 1251 -356.43520 -336.74973  5.52%     - 30488s
     0     0 -336.77158    0 1390 -356.43520 -336.77158  5.52%     - 30518s
     0     0 -336.77291    0 1387 -356.43520 -336.77291  5.52%     - 30529s
     0     0 -336.94550    0 1399 -356.43520 -336.94550  5.47%     - 31233s
     0     0 -336.98146    0 1241 -356.43520 -336.98146  5.46%     - 31258s
     0     0 -337.01278    0 1306 -356.43520 -337.01278  5.45%     - 31293s
     0     0 -337.05739    0 1397 -356.43520 -337.05739  5.44%     - 31330s
     0     0 -337.06595    0 1411 -356.43520 -337.06595  5.43%     - 31340s
     0     0 -337.12535    0 1412 -356.43520 -337.12535  5.42%     - 31378s
     0     0 -337.13819    0 1415 -356.43520 -337.13819  5.41%     - 31410s
     0     0 -337.14356    0 1421 -356.43520 -337.14356  5.41%     - 31421s
     0     0 -337.14356    0 1421 -356.43520 -337.14356  5.41%     - 31426s
     0     0 -338.10497    0 1408 -356.43520 -338.10497  5.14%     - 34769s
     0     0 -338.49915    0 1399 -356.43520 -338.49915  5.03%     - 34872s
     0     0 -338.56996    0 1399 -356.43520 -338.56996  5.01%     - 34928s
     0     0 -338.58510    0 1396 -356.43520 -338.58510  5.01%     - 34950s
     0     0 -338.58510    0 1396 -356.43520 -338.58510  5.01%     - 34955s
     0     0 -338.93590    0 1374 -356.43520 -338.93590  4.91%     - 35045s
     0     0 -338.95774    0 1403 -356.43520 -338.95774  4.90%     - 35070s
     0     0 -338.95774    0 1381 -356.43520 -338.95774  4.90%     - 35077s
     0     0 -339.02052    0 1393 -356.43520 -339.02052  4.89%     - 35136s
H    0     0                    -354.7316321 -339.02052  4.43%     - 35145s
     0     0 -339.03784    0  953 -354.73163 -339.03784  4.42%     - 35172s
     0     0 -339.04792    0 1406 -354.73163 -339.04792  4.42%     - 35188s
     0     0 -339.06233    0 1408 -354.73163 -339.06233  4.42%     - 35203s
     0     0 -339.06233    0 1408 -354.73163 -339.06233  4.42%     - 35209s
     0     0 -339.34313    0 1379 -354.73163 -339.34313  4.34%     - 35409s
     0     0 -339.53073    0 1380 -354.73163 -339.53073  4.29%     - 35508s
     0     0 -339.60675    0 1385 -354.73163 -339.60675  4.26%     - 35526s
     0     0 -339.60675    0 1384 -354.73163 -339.60675  4.26%     - 35532s
     0     0 -339.61155    0 1410 -354.73163 -339.61155  4.26%     - 35576s
     0     0 -339.66722    0 1416 -354.73163 -339.66722  4.25%     - 35672s
     0     0 -339.68325    0 1424 -354.73163 -339.68325  4.24%     - 35692s
     0     0 -339.74331    0 1419 -354.73163 -339.74331  4.23%     - 35712s
     0     0 -339.81670    0 1410 -354.73163 -339.81670  4.20%     - 35794s
     0     0 -339.83108    0 1418 -354.73163 -339.83108  4.20%     - 35815s
     0     0 -339.83108    0 1417 -354.73163 -339.83108  4.20%     - 35819s
     0     0 -339.83108    0 1416 -354.73163 -339.83108  4.20%     - 35833s
     0     0 -339.83108    0 1420 -354.73163 -339.83108  4.20%     - 35850s
     0     0 -339.83108    0 1421 -354.73163 -339.83108  4.20%     - 35863s
     0     0 -339.83108    0 1421 -354.73163 -339.83108  4.20%     - 35882s
     0     0 -339.83108    0 1342 -354.73163 -339.83108  4.20%     - 36778s
     0     0 -339.83108    0 1341 -354.73163 -339.83108  4.20%     - 36868s
     0     2 -339.83150    0 1341 -354.73163 -339.83150  4.20%     - 37145s
     1     3 -340.83702    1  759 -354.73163 -339.83563  4.20%  2609 37158s
     2     4 -343.11678    2  760 -354.73163 -339.83563  4.20%  1933 37170s
     5     5     cutoff    4      -354.73163 -339.83563  4.20%  1991 37227s
     6     6 -344.82035    5  745 -354.73163 -339.83563  4.20%  1861 37236s
     8     6     cutoff    6      -354.73163 -339.83563  4.20%  2539 37325s
     9     7 -345.67213    7  743 -354.73163 -339.83563  4.20%  2267 37350s
    10     6     cutoff    7      -354.73163 -339.83563  4.20%  2178 37359s
    11     7 -345.67213    8  743 -354.73163 -339.83563  4.20%  1981 37361s
    14     8     cutoff   10      -354.73163 -339.83563  4.20%  1613 37368s
    16     8     cutoff   11      -354.73163 -339.83563  4.20%  1455 37373s
    17     9 -350.78283   12  684 -354.73163 -339.83563  4.20%  1409 37378s
    18     8     cutoff   12      -354.73163 -339.83563  4.20%  1347 37381s
    21     7     cutoff   14      -354.73163 -339.83563  4.20%  1175 37385s
    24     6     cutoff   14      -354.73163 -339.83563  4.20%  1051 37390s
    25     7 -344.24366    1  935 -354.73163 -340.83735  3.92%  1327 37491s
    26     8 -344.72904    2  495 -354.73163 -340.83735  3.92%  1295 37496s
    27     9 -345.99156    3  580 -354.73163 -340.83735  3.92%  1293 37521s
    28    10 -347.01548    3  377 -354.73163 -340.83735  3.92%  1403 37563s
    29    11 -347.86726    4  389 -354.73163 -340.83735  3.92%  1369 37567s
    30    12 -349.95327    4  628 -354.73163 -340.83735  3.92%  1434 37594s
    31    13 -348.71904    5  381 -354.73163 -340.83735  3.92%  1391 37595s
    32    14 -348.98209    6  372 -354.73163 -340.83735  3.92%  1351 37612s
    33    13     cutoff    6      -354.73163 -340.83735  3.92%  1329 37617s
    34    14 -352.17628    7  231 -354.73163 -340.83735  3.92%  1334 37627s
    35    15 -351.32450    7  293 -354.73163 -340.83735  3.92%  1351 37638s
    36    16 -352.17628    8  284 -354.73163 -340.83735  3.92%  1318 37647s
    37    17 -353.02807    9  252 -354.73163 -340.83735  3.92%  1293 37651s
    40    14     cutoff   10      -354.73163 -340.83735  3.92%  1214 37655s
    41    15 -354.16378    8  293 -354.73163 -340.83735  3.92%  1200 37660s
    44    14 -343.12346    2  744 -354.73163 -343.12047  3.27%  1185 37677s
    45    15 -343.20633    3  712 -354.73163 -343.12047  3.27%  1164 37707s
    46    16 -344.05811    4  710 -354.73163 -343.12047  3.27%  1146 37711s
    48    18 -344.05811    5  715 -354.73163 -343.12047  3.27%  1104 37740s
    49    17     cutoff    5      -354.73163 -343.12047  3.27%  1180 37776s
    50    18 -346.61346    6  658 -354.73163 -343.12047  3.27%  1165 37782s
    51    19 -348.31703    6  699 -354.73163 -343.12047  3.27%  1207 37806s
    53    19     cutoff    7      -354.73163 -343.12047  3.27%  1186 37815s
    54    20 -352.57595    8  590 -354.73163 -343.12047  3.27%  1185 37832s
    56    22 -353.42773   10  594 -354.73163 -343.12047  3.27%  1145 37844s
    57    21     cutoff   10      -354.73163 -343.12047  3.27%  1129 37845s
    62    20 -343.96857    3  761 -354.73163 -343.12346  3.27%  1057 37853s
    63    21 -347.55417    4  788 -354.73163 -343.12346  3.27%  1308 38159s

Cutting planes:
  Gomory: 2
  Zero half: 407

Explored 64 nodes (1367468 simplex iterations) in 86400.20 seconds
Thread count was 1 (of 80 available processors)

Solution count 6: -354.732 -356.435 -370.431 ... -13997

Time limit reached
Best objective -3.547316320975e+02, best bound -3.431234633572e+02, gap 3.2724%
